NAME : amtsp.-98729.tour
COMMENT : Length = -98729
COMMENT : Found by LKH [Keld Helsgaun] Fri Oct 13 14:51:29 2023
TYPE : TOUR
DIMENSION : 18
TOUR_SECTION
1
2
10
9
3
16
15
17
18
4
11
12
13
14
5
6
7
8
-1
EOF
